a280_1
0 10 288 11 287 286 268 283 282 281 280 279 24 25 26 27 28 29 136 135 134 133 38 39 40 37 36 35 34 30 33 31 32 22 21 20 19 18 16 15 17 284 285 12 13 14 1 269 267 266 265 262 261 216 214 215 218 217 260 263 264 257 258 259 238 237 236 235 241 242 243 244 245 240 239 254 246 247 248 249 250 251 252 253 255 256 1 270 271 272 273 274 275 276 277 278 142 143 144 145 146 147 148 149 150 151 152 153 154 155 156 157 158 186 159 160 164 161 163 162 137 138 139 140 141 23 2 213 212 211 210 209 208 207 206 205 204 203 202 201 199 198 197 196 195 193 192 191 190 189 188 187 184 185 167 166 165 127 128 129 130 131 132 6 41 42 43 44 45 46 47 48 49 50 51 68 69 126 123 122 119 118 116 112 111 110 124 94 93 92 91 90 89 88 87 86 85 84 83 82 81 80 79 78 75 74 73 72 71 70 8 54 55 56 57 58 59 60 61 62 63 64 65 66 76 77 95 96 97 101 102 103 104 105 106 107 108 109 100 99 98 120 121 67 52 53 8 125 117 113 114 180 179 178 177 176 175 174 173 172 171 170 169 183 168 182 181 115 8 194 200 229 228 225 224 221 220 219 222 223 226 227 230 231 232 233 234 0